p cnf 33 92
a 1 28 5 0
e 2 3 4 6 7 8 9 10 11 12 13 14 15 16 17 18 19 20 21 22 23 24 25 26 27 29 30 31 32 33 0
3 1 0
3 -2 0
-1 2 -3 0
-4 5 -6 0
4 -5 -6 0
-4 -5 6 0
4 5 6 0
8 -6 0
8 7 0
6 -7 -8 0
9 -2 -10 0
-9 2 -10 0
9 2 10 0
-9 -2 10 0
-12 -10 0
-12 11 0
10 -11 12 0
-8 12 -13 0
8 -12 -13 0
-8 -12 13 0
8 12 13 0
3 13 -14 0
-3 -13 -14 0
3 -13 14 0
-3 13 14 0
2 15 -16 0
-2 -15 -16 0
2 -15 16 0
-2 15 16 0
16 -2 -17 0
-16 2 -17 0
16 2 17 0
-16 -2 17 0
-18 -10 0
-18 16 0
10 -16 18 0
19 11 0
19 18 0
-11 -18 -19 0
20 -17 0
20 19 0
17 -19 -20 0
-21 -2 0
-21 4 0
2 -4 21 0
-22 -10 0
-22 -5 0
10 5 22 0
-23 21 0
-23 22 0
-21 -22 23 0
24 -20 0
24 23 0
20 -23 -24 0
-25 -14 0
-25 -24 0
14 24 25 0
-4 -21 -26 0
4 21 -26 0
-4 21 26 0
4 -21 26 0
6 27 0
-6 27 0
-28 -21 0
-28 18 0
21 -18 28 0
10 -29 0
-10 -29 0
28 29 -30 0
-28 -29 -30 0
28 -29 30 0
-28 29 30 0
27 -30 -31 0
-27 30 -31 0
27 30 31 0
-27 -30 31 0
-32 -26 0
-32 -31 0
26 31 32 0
25 32 -33 0
-25 -32 -33 0
25 -32 33 0
-25 32 33 0
-30 -21 20 28 4 0
-6 -21 -15 -19 10 -31 0
-31 -18 25 1 23 8 17 0
-19 -28 -26 33 -11 1 0
-3 -18 -31 -11 6 25 -13 0
-27 24 -1 -26 -19 3 0
-15 24 -33 0
-3 -4 -32 23 0
33 0
